# Objective value = -7.2979945328370137e+00
x_1_1 1.1035846555921398e+02
q_1_1 0
x_1_2 2.9117761407949786e+01
q_1_2 0
x_1_3 -2.0023000075738016e+00
q_1_3 0
x_1_4 -2.5474850621282776e+00
q_1_4 0
x_1_5 -5.1885270159423067e+00
q_1_5 0
x_2_1 8.6300656260903963e+01
q_2_1 0
x_2_2 0
q_2_2 1
x_2_3 9.7488598151669521e+01
q_2_3 0
x_2_4 6.0692093147867334e+00
q_2_4 0
x_2_5 4.8166783839557482e+01
q_2_5 0
x_2_6 4.0327614049046517e+01
q_2_6 0
x_2_7 0
q_2_7 1
x_2_8 8.4799611920284164e+01
q_2_8 0
x_2_9 0
q_2_9 1
x_2_10 0
q_2_10 1
x_2_11 0
q_2_11 1
x_2_12 8.3173222079619393e+01
q_2_12 0
x_2_13 2.3676293168464959e+01
q_2_13 0
x_2_14 0
q_2_14 1
x_2_15 2.0649787638397896e+01
q_2_15 0
x_2_16 0
q_2_16 1
x_2_17 6.6213208529655532e+01
q_2_17 0
x_2_18 0
q_2_18 1
x_2_19 4.9455067043895717e+01
q_2_19 0
x_2_20 1.1832181661530939e+02
q_2_20 0
x_3_1 1.3045092377005878e+02
q_3_1 0
x_3_2 0
q_3_2 1
x_3_3 0
q_3_3 1
x_3_4 0
q_3_4 1
x_3_5 0
q_3_5 1
x_3_6 0
q_3_6 1
x_3_7 4.8585464261466313e+01
q_3_7 0
x_3_8 0
q_3_8 1
x_3_9 1.2728553356706996e+02
q_3_9 0
x_3_10 5.0347175337598159e+01
q_3_10 0
x_3_11 0
q_3_11 1
x_3_12 0
q_3_12 1
x_3_13 0
q_3_13 1
x_3_14 0
q_3_14 1
x_3_15 0
q_3_15 1
x_3_16 0
q_3_16 1
x_3_17 2.9560602418363114e+01
q_3_17 0
x_3_18 2.8607200991305547e+01
q_3_18 0
x_3_19 0
q_3_19 1
x_3_20 0
q_3_20 1
x_4_1 7.7807270865797932e+01
q_4_1 0
x_4_2 7.3956984272866691e+01
q_4_2 0
x_4_3 0
q_4_3 1
x_4_4 2.9945855493159232e+01
q_4_4 0
x_4_5 0
q_4_5 1
x_4_6 48.807090914138
q_4_6 0
x_4_7 0
q_4_7 1
x_4_8 1.4615916975451483e+02
q_4_8 0
x_4_9 1.7331935933984656e+02
q_4_9 0
x_4_10 0
q_4_10 1
x_4_11 0
q_4_11 1
x_4_12 0
q_4_12 1
x_4_13 0
q_4_13 1
x_4_14 18.3713880470855
q_4_14 0
x_4_15 5.2814729155127324e+01
q_4_15 0
x_4_16 2.3143857765539212e+02
q_4_16 0
x_4_17 1.2597820676621383e+02
q_4_17 0
x_4_18 1.8244664242617432e+01
q_4_18 0
x_4_19 2.4158540810277032e+00
q_4_19 0
x_4_20 0
q_4_20 1
x_5_1 0
q_5_1 1
x_5_2 0
q_5_2 1
x_5_3 0
q_5_3 1
x_5_4 0
q_5_4 1
x_5_5 0
q_5_5 1
x_5_6 1.5247207885570759e+02
q_5_6 0
x_5_7 3.2329787173682030e+02
q_5_7 0
x_5_8 0
q_5_8 1
x_5_9 0
q_5_9 1
x_5_10 6.5923311116600317e+01
q_5_10 0
x_5_11 3.0698122956511054e+02
q_5_11 0
x_5_12 1.5212636858488966e+02
q_5_12 0
x_5_13 0
q_5_13 1
x_5_14 0
q_5_14 1
x_5_15 0
q_5_15 1
x_5_16 5.4557673500033047e+01
q_5_16 0
x_5_17 2.2629366932759598e+02
q_5_17 0
x_5_18 0
q_5_18 1
x_5_19 3.5021272845886074e+02
q_5_19 0
x_5_20 0
q_5_20 1
x_6_1 3.8933772069204565e+01
q_6_1 0
x_6_2 340.779738297345
q_6_2 0
x_6_3 0
q_6_3 1
x_6_4 0
q_6_4 1
x_6_5 0
q_6_5 1
x_6_6 0
q_6_6 1
x_6_7 0
q_6_7 1
x_6_8 2.4617148619307937e+02
q_6_8 0
x_6_9 1.6295187163895329e+02
q_6_9 0
x_6_10 5.3500495709767449e+02
q_6_10 0
x_6_11 0
q_6_11 1
x_6_12 2.3906496126377056e+02
q_6_12 0
x_6_13 4.7922988466115157e+02
q_6_13 0
x_6_14 0
q_6_14 1
x_6_15 0
q_6_15 1
x_6_16 0
q_6_16 1
x_6_17 0
q_6_17 1
x_6_18 0
q_6_18 1
x_6_19 6.1735388527032023e+02
q_6_19 0
x_6_20 2.7279664361073390e+02
q_6_20 0
x_7_1 -7.2979945328370137e+00
q_7_1 0
